%company_type = A;

% The minimum earnings to obtain.
budget = 1000;
minimum_earnings = 1500;

% Co2 related constraints
previous_year_co2 = 1000;
Products = {Box, Recicled_Box};

product_costs = [5, 10];
product_selling_prices = [20, 25];
co2_emissions = [8, 1.5];
product_times = [20,30];
% an already recicled material is less reciclable than a non recicled one
% optional parameter (default = [])
product_reciclable_compositions = [0.6, 0.5];
% times_to_produce = [];
% minimum_number_of_products_to_make = [];
% raw_materials_of_products = [];

% 
Machinery = {M1, M2, M3, M4, M5};
m_yearly_uses = [500, 1000, 5000, 1000, 100];
m_energy_per_hours = [15.01, 13.01, 10, 12, 43];
m_water_per_hours = [200, 230, 300, 400, 200];
m_prices = [200, 500, 200, 400, 100];
m_resell_prices = [150, 260, 130, 230, 55];
max_n_machinery = 5;
%m_linked_products = [|true, false|true, true|];
% Should be <= sum(m_yearly_uses)
starting_machinery = [1, 3, 0, 0, 0];
max_hour_machine_usage = 5000;
machine_budget = 1000;
% 
